\* Problem_1 *\
Maximize
OBJ: 0.8 Product_1 + 0.3 Product_2 + 0.38 Product_3 + 0.4 Product_4
Subject To
_C1: 0.5 Product_1 + 0.2 Product_2 + 0.3 Product_3 + 0.6 Product_4 <= 600
_C2: 0.1 Product_1 + 0.4 Product_2 + 0.2 Product_3 + 0.5 Product_4 <= 800
End
